NAME          ClpDefau  FREE
ROWS
 N  OBJROW
 L  ZMUNI1_PCT
 L  ZMUNI2_PCT
 L  ZMUNI3_PCT
 L  ZMUNI4_PCT
 L  ZMUNI5_PCT
 L  ZMUNI6_PCT
 L  ZMUNI7_PCT
 L  ZMUNI8_PCT
 L  ZMUNI9_PCT
COLUMNS
    QMUNI1 OBJROW 1.          
    QMUNI1 ZMUNI1_PCT 30989.6469  
    QMUNI1 ZMUNI2_PCT 2481.0791   
    QMUNI1 ZMUNI3_PCT 4910.8505   
    QMUNI1 ZMUNI4_PCT 3756.7138   
    QMUNI1 ZMUNI5_PCT 852.3941    
    QMUNI1 ZMUNI6_PCT 992.5842    
    QMUNI1 ZMUNI7_PCT 2937.6984   
    QMUNI1 ZMUNI8_PCT 2309.4178   
    QMUNI1 ZMUNI9_PCT 1592.2547   
    QMUNI2 OBJROW 1.          
    QMUNI2 ZMUNI1_PCT 1788.9023   
    QMUNI2 ZMUNI2_PCT 36299.3241  
    QMUNI2 ZMUNI3_PCT 2631.9504   
    QMUNI2 ZMUNI4_PCT 2838.5162   
    QMUNI2 ZMUNI5_PCT 50.1633     
    QMUNI2 ZMUNI6_PCT 104.5227    
    QMUNI2 ZMUNI7_PCT 1130.6763   
    QMUNI2 ZMUNI8_PCT 1304.245    
    QMUNI2 ZMUNI9_PCT 1310.9207   
    QMUNI3 OBJROW 1.          
    QMUNI3 ZMUNI1_PCT 4349.1363   
    QMUNI3 ZMUNI2_PCT 2858.7342   
    QMUNI3 ZMUNI3_PCT 31902.504   
    QMUNI3 ZMUNI4_PCT 5385.5896   
    QMUNI3 ZMUNI5_PCT  -121.3074  
    QMUNI3 ZMUNI6_PCT 53.978      
    QMUNI3 ZMUNI7_PCT 1709.7474   
    QMUNI3 ZMUNI8_PCT 1485.0617   
    QMUNI3 ZMUNI9_PCT 797.6532    
    QMUNI4 OBJROW 1.          
    QMUNI4 ZMUNI1_PCT 3497.8866   
    QMUNI4 ZMUNI2_PCT 3278.5416   
    QMUNI4 ZMUNI3_PCT 5720.7108   
    QMUNI4 ZMUNI4_PCT 113722.229  
    QMUNI4 ZMUNI5_PCT 331.6879    
    QMUNI4 ZMUNI6_PCT 426.1017    
    QMUNI4 ZMUNI7_PCT 1744.8426   
    QMUNI4 ZMUNI8_PCT 1558.3039   
    QMUNI4 ZMUNI9_PCT 995.4453    
    QMUNI5 OBJROW 1.          
    QMUNI5 ZMUNI1_PCT 370.0256    
    QMUNI5 ZMUNI2_PCT 272.3694    
    QMUNI5 ZMUNI3_PCT 327.8732    
    QMUNI5 ZMUNI4_PCT 304.4128    
    QMUNI5 ZMUNI5_PCT 38803.4821  
    QMUNI5 ZMUNI6_PCT 3143.692    
    QMUNI5 ZMUNI7_PCT 582.8858    
    QMUNI5 ZMUNI8_PCT 346.756     
    QMUNI5 ZMUNI9_PCT 340.4617    
    QMUNI6 OBJROW 1.          
    QMUNI6 ZMUNI1_PCT 663.3758    
    QMUNI6 ZMUNI2_PCT 550.4608    
    QMUNI6 ZMUNI3_PCT 609.0164    
    QMUNI6 ZMUNI4_PCT 538.4445    
    QMUNI6 ZMUNI5_PCT 3392.601    
    QMUNI6 ZMUNI6_PCT 35095.5963  
    QMUNI6 ZMUNI7_PCT 1079.5594   
    QMUNI6 ZMUNI8_PCT 784.6833    
    QMUNI6 ZMUNI9_PCT 868.4158    
    QMUNI7 OBJROW 1.          
    QMUNI7 ZMUNI1_PCT 1414.8712   
    QMUNI7 ZMUNI2_PCT 888.2523    
    QMUNI7 ZMUNI3_PCT 1258.6594   
    QMUNI7 ZMUNI4_PCT 990.6768    
    QMUNI7 ZMUNI5_PCT  -175.4761  
    QMUNI7 ZMUNI6_PCT 97.084      
    QMUNI7 ZMUNI7_PCT 35804.7486  
    QMUNI7 ZMUNI8_PCT 2400.2075   
    QMUNI7 ZMUNI9_PCT 777.0538    
    QMUNI8 OBJROW 1.          
    QMUNI8 ZMUNI1_PCT 1308.8226   
    QMUNI8 ZMUNI2_PCT 1255.7984   
    QMUNI8 ZMUNI3_PCT 1369.6671   
    QMUNI8 ZMUNI4_PCT 1138.1149   
    QMUNI8 ZMUNI5_PCT 258.6365    
    QMUNI8 ZMUNI6_PCT 332.4509    
    QMUNI8 ZMUNI7_PCT 2921.6767   
    QMUNI8 ZMUNI8_PCT 31653.2135  
    QMUNI8 ZMUNI9_PCT 1716.2323   
    QMUNI9 OBJROW 1.          
    QMUNI9 ZMUNI1_PCT 498.9624    
    QMUNI9 ZMUNI2_PCT 909.9961    
    QMUNI9 ZMUNI3_PCT 621.9864    
    QMUNI9 ZMUNI4_PCT 576.21      
    QMUNI9 ZMUNI5_PCT  -111.9614  
    QMUNI9 ZMUNI6_PCT  -75.531    
    QMUNI9 ZMUNI7_PCT 769.4245    
    QMUNI9 ZMUNI8_PCT 1345.4438   
    QMUNI9 ZMUNI9_PCT 30117.4164  
RHS
    RHS ZMUNI1_PCT  -0.31756925
    RHS ZMUNI2_PCT 0.2461555346
    RHS ZMUNI3_PCT 0.1700077618
    RHS ZMUNI4_PCT 1.1906612867
    RHS ZMUNI5_PCT 0.204461335 
    RHS ZMUNI6_PCT  -0.19151267
    RHS ZMUNI7_PCT 0.1865057185
    RHS ZMUNI8_PCT 0.143001972 
    RHS ZMUNI9_PCT  -0.11738275
BOUNDS
 LO BOUND QMUNI1 -0.000590859
 UP BOUND QMUNI1      1.1e+10
 LO BOUND QMUNI2 -0.000416174
 UP BOUND QMUNI2      1.1e+10
 LO BOUND QMUNI3 -0.000484735
 UP BOUND QMUNI3      1.1e+10
 LO BOUND QMUNI4 -0.000172775
 UP BOUND QMUNI4      1.1e+10
 LO BOUND QMUNI5 -0.000287628
 UP BOUND QMUNI5      1.1e+10
 LO BOUND QMUNI6 -0.000426137
 UP BOUND QMUNI6      1.1e+10
 LO BOUND QMUNI7   -9.6089e-5
 UP BOUND QMUNI7      1.1e+10
 LO BOUND QMUNI8 -0.000229994
 UP BOUND QMUNI8      1.1e+10
 LO BOUND QMUNI9 -0.000247427
 UP BOUND QMUNI9      1.1e+10
ENDATA
